
Gurobi 6.5.2 (linux64) logging started Sun Sep 18 18:40:56 2016


Gurobi 6.5.2 (linux64) logging started Sun Sep 18 18:40:56 2016

Optimize a model with 41 rows, 77 columns and 155 nonzeros
Coefficient statistics:
  Matrix range    [1e+00, 2e+00]
  Objective range [8e+00, 1e+02]
  Bounds range    [1e+00, 1e+00]
  RHS range       [1e+00, 1e+00]
Found heuristic solution: objective 1162
Presolve removed 21 rows and 20 columns
Presolve time: 0.00s
Presolved: 20 rows, 57 columns, 114 nonzeros
Variable types: 0 continuous, 57 integer (57 binary)

Root relaxation: objective 8.250000e+02, 29 iterations, 0.00 seconds

    Nodes    |    Current Node    |     Objective Bounds      |     Work
 Expl Unexpl |  Obj  Depth IntInf | Incumbent    BestBd   Gap | It/Node Time

     0     0  827.50000    0    4 1162.00000  827.50000  28.8%     -    0s
     0     0  830.00000    0   11 1162.00000  830.00000  28.6%     -    0s
H    0     0                     940.0000000  830.00000  11.7%     -    0s
H    0     0                     835.0000000  830.00000  0.60%     -    0s
     0     0  830.00000    0   10  835.00000  830.00000  0.60%     -    0s
     0     0  832.66667    0    3  835.00000  832.66667  0.28%     -    0s

Cutting planes:
  Gomory: 1
  MIR: 1
  Lazy constraints: 1

Explored 0 nodes (40 simplex iterations) in 0.00 seconds
Thread count was 8 (of 8 available processors)

Optimal solution found (tolerance 1.00e-04)
Best objective 8.350000000000e+02, best bound 8.350000000000e+02, gap 0.0%
